Set parameter TokenServer to value "hpc-licenses.hpcc.usc.edu"
Set parameter TimeLimit to value 3600
Gurobi Optimizer version 9.5.1 build v9.5.1rc2 (linux64)
Thread count: 20 physical cores, 20 logical processors, using up to 20 threads
Optimize a model with 6007 rows, 4529 columns and 24534 nonzeros
Model fingerprint: 0x7f9a7876
Variable types: 4506 continuous, 23 integer (23 binary)
Coefficient statistics:
  Matrix range     [1e+00, 1e+00]
  Objective range  [1e-03, 3e+00]
  Bounds range     [1e+00, 1e+00]
  RHS range        [1e+00, 1e+02]
Found heuristic solution: objective 214.6970742
Presolve removed 1520 rows and 1515 columns
Presolve time: 0.08s
Presolved: 4487 rows, 3014 columns, 21975 nonzeros
Variable types: 2994 continuous, 20 integer (20 binary)

Root relaxation: objective 2.339589e+02, 2464 iterations, 0.12 seconds (0.11 work units)

    Nodes    |    Current Node    |     Objective Bounds      |     Work
 Expl Unexpl |  Obj  Depth IntInf | Incumbent    BestBd   Gap | It/Node Time

     0     0  233.95887    0    2  214.69707  233.95887  8.97%     -    0s
H    0     0                     217.8120981  233.95887  7.41%     -    0s
     0     0  233.70144    0    2  217.81210  233.70144  7.29%     -    0s
     0     0  233.61073    0    2  217.81210  233.61073  7.25%     -    0s
H    0     0                     218.7428731  233.61073  6.80%     -    0s
     0     0  233.50209    0    2  218.74287  233.50209  6.75%     -    0s
     0     0  233.45000    0    2  218.74287  233.45000  6.72%     -    0s
     0     0  233.44661    0    2  218.74287  233.44661  6.72%     -    0s
     0     0  233.44661    0    2  218.74287  233.44661  6.72%     -    0s
     0     0  233.27344    0    2  218.74287  233.27344  6.64%     -    0s
     0     0  233.23804    0    2  218.74287  233.23804  6.63%     -    0s
     0     0  231.73118    0    2  218.74287  231.73118  5.94%     -    0s
     0     0  231.73118    0    3  218.74287  231.73118  5.94%     -    0s
     0     0  231.73065    0    3  218.74287  231.73065  5.94%     -    0s
H    0     0                     231.1583588  231.73065  0.25%     -    1s
     0     0     cutoff    0       231.15836  231.15836  0.00%     -    1s

Explored 1 nodes (4006 simplex iterations) in 1.31 seconds (0.83 work units)
Thread count was 20 (of 20 available processors)

Solution count 5: 231.158 226.223 218.743 ... 214.697

Optimal solution found (tolerance 1.00e-04)
Best objective 2.311583588157e+02, best bound 2.311583588157e+02, gap 0.0000%



#########node  1
V1.8
#########node  2
0.0,1.0
#########node  3
1.0,0.0


Total Solving Time 1.7071919441223145
obj value 231.15835881565263
Policy Regret train (Sum) 6.574261261987341
Best Treatment Found train (%) 61.8
treatment classification acc train (%) 67.60000000000001
Policy Regret test (Sum) 108.72835269107836
Best Treatment Found test (%) 63.12
treatment classification acc test (%) 66.11
